 $CONTRL SCFTYP=RHF RUNTYP=ENERGY UNITS=BOHR $END
 $SYSTEM TIMLIM=1 $END
 $STATPT OPTTOL=1.0E-5  $END
 $BASIS  GBASIS=STO NGAUSS=3 $END
 $GUESS  GUESS=HUCKEL $END
 $ELMOM IEMOM=2 $END
 $DATA
CO molecule
C1
CARBON   6.0   0.0   0.0   0.0
OXYGEN   8.0   0.0   0.0   2.16464
 $END
