# test
! HF SVP
! Bohrs
* xyz 0 1
  H   0.0000  0.0000  0.0000
  Li  1.4632  0.0000  0.0000
*

